(set-logic HORN)
(declare-datatypes ((Nat_1 0)) (((Z_1 ) (S_1 (unS_0 Nat_1)))))
(declare-fun diseqNat_0 (Nat_1 Nat_1) Bool)
(declare-fun unS_1 (Nat_1 Nat_1) Bool)
(declare-fun isZ_0 (Nat_1) Bool)
(declare-fun isS_0 (Nat_1) Bool)
(assert (forall ((x_27 Nat_1) (x_26 Nat_1))
	(=> (= x_27 (S_1 x_26))
	    (unS_1 x_26 x_27))))
(assert (isZ_0 Z_1))
(assert (forall ((x_28 Nat_1))
	(isS_0 (S_1 x_28))))
(assert (forall ((x_29 Nat_1))
	(diseqNat_0 Z_1 (S_1 x_29))))
(assert (forall ((x_30 Nat_1))
	(diseqNat_0 (S_1 x_30) Z_1)))
(assert (forall ((x_31 Nat_1) (x_32 Nat_1))
	(=> (diseqNat_0 x_31 x_32)
	    (diseqNat_0 (S_1 x_31) (S_1 x_32)))))
(declare-fun add_0 (Nat_1 Nat_1 Nat_1) Bool)
(declare-fun minus_0 (Nat_1 Nat_1 Nat_1) Bool)
(declare-fun le_0 (Nat_1 Nat_1) Bool)
(declare-fun ge_0 (Nat_1 Nat_1) Bool)
(declare-fun lt_0 (Nat_1 Nat_1) Bool)
(declare-fun gt_0 (Nat_1 Nat_1) Bool)
(declare-fun mult_0 (Nat_1 Nat_1 Nat_1) Bool)
(declare-fun div_0 (Nat_1 Nat_1 Nat_1) Bool)
(declare-fun mod_0 (Nat_1 Nat_1 Nat_1) Bool)
(assert (forall ((y_4 Nat_1))
	(add_0 y_4 Z_1 y_4)))
(assert (forall ((x_24 Nat_1) (y_4 Nat_1) (r_0 Nat_1))
	(=> (add_0 r_0 x_24 y_4)
	    (add_0 (S_1 r_0) (S_1 x_24) y_4))))
(assert (forall ((y_4 Nat_1))
	(minus_0 Z_1 Z_1 y_4)))
(assert (forall ((x_24 Nat_1) (y_4 Nat_1) (r_0 Nat_1))
	(=> (minus_0 r_0 x_24 y_4)
	    (minus_0 (S_1 r_0) (S_1 x_24) y_4))))
(assert (forall ((y_4 Nat_1))
	(le_0 Z_1 y_4)))
(assert (forall ((x_24 Nat_1) (y_4 Nat_1))
	(=> (le_0 x_24 y_4)
	    (le_0 (S_1 x_24) (S_1 y_4)))))
(assert (forall ((y_4 Nat_1))
	(ge_0 y_4 Z_1)))
(assert (forall ((x_24 Nat_1) (y_4 Nat_1))
	(=> (ge_0 x_24 y_4)
	    (ge_0 (S_1 x_24) (S_1 y_4)))))
(assert (forall ((y_4 Nat_1))
	(lt_0 Z_1 (S_1 y_4))))
(assert (forall ((x_24 Nat_1) (y_4 Nat_1))
	(=> (lt_0 x_24 y_4)
	    (lt_0 (S_1 x_24) (S_1 y_4)))))
(assert (forall ((y_4 Nat_1))
	(gt_0 (S_1 y_4) Z_1)))
(assert (forall ((x_24 Nat_1) (y_4 Nat_1))
	(=> (gt_0 x_24 y_4)
	    (gt_0 (S_1 x_24) (S_1 y_4)))))
(assert (forall ((y_4 Nat_1))
	(mult_0 Z_1 Z_1 y_4)))
(assert (forall ((x_24 Nat_1) (y_4 Nat_1) (r_0 Nat_1) (z_3 Nat_1))
	(=>	(and (mult_0 r_0 x_24 y_4)
			(add_0 z_3 r_0 y_4))
		(mult_0 z_3 (S_1 x_24) y_4))))
(assert (forall ((x_24 Nat_1) (y_4 Nat_1))
	(=> (lt_0 x_24 y_4)
	    (div_0 Z_1 x_24 y_4))))
(assert (forall ((x_24 Nat_1) (y_4 Nat_1) (r_0 Nat_1) (z_3 Nat_1))
	(=>	(and (ge_0 x_24 y_4)
			(minus_0 z_3 x_24 y_4)
			(div_0 r_0 z_3 y_4))
		(div_0 (S_1 r_0) x_24 y_4))))
(assert (forall ((x_24 Nat_1) (y_4 Nat_1))
	(=> (lt_0 x_24 y_4)
	    (mod_0 x_24 x_24 y_4))))
(assert (forall ((x_24 Nat_1) (y_4 Nat_1) (r_0 Nat_1) (z_3 Nat_1))
	(=>	(and (ge_0 x_24 y_4)
			(minus_0 z_3 x_24 y_4)
			(mod_0 r_0 z_3 y_4))
		(mod_0 r_0 x_24 y_4))))
(declare-datatypes ((Nat_0 0)) (((Z_0 ) (S_0 (projS_0 Nat_0)))))
(declare-fun diseqNat_1 (Nat_0 Nat_0) Bool)
(declare-fun projS_1 (Nat_0 Nat_0) Bool)
(declare-fun isZ_1 (Nat_0) Bool)
(declare-fun isS_1 (Nat_0) Bool)
(assert (forall ((x_35 Nat_0) (x_34 Nat_0))
	(=> (= x_35 (S_0 x_34))
	    (projS_1 x_34 x_35))))
(assert (isZ_1 Z_0))
(assert (forall ((x_36 Nat_0))
	(isS_1 (S_0 x_36))))
(assert (forall ((x_37 Nat_0))
	(diseqNat_1 Z_0 (S_0 x_37))))
(assert (forall ((x_38 Nat_0))
	(diseqNat_1 (S_0 x_38) Z_0)))
(assert (forall ((x_39 Nat_0) (x_40 Nat_0))
	(=> (diseqNat_1 x_39 x_40)
	    (diseqNat_1 (S_0 x_39) (S_0 x_40)))))
(declare-datatypes ((list_0 0)) (((nil_0 ) (cons_0 (head_0 Nat_0) (tail_0 list_0)))))
(declare-fun diseqlist_0 (list_0 list_0) Bool)
(declare-fun head_1 (Nat_0 list_0) Bool)
(declare-fun tail_1 (list_0 list_0) Bool)
(declare-fun isnil_0 (list_0) Bool)
(declare-fun iscons_0 (list_0) Bool)
(assert (forall ((x_44 list_0) (x_42 Nat_0) (x_43 list_0))
	(=> (= x_44 (cons_0 x_42 x_43))
	    (head_1 x_42 x_44))))
(assert (forall ((x_44 list_0) (x_42 Nat_0) (x_43 list_0))
	(=> (= x_44 (cons_0 x_42 x_43))
	    (tail_1 x_43 x_44))))
(assert (isnil_0 nil_0))
(assert (forall ((x_45 Nat_0) (x_46 list_0))
	(iscons_0 (cons_0 x_45 x_46))))
(assert (forall ((x_47 Nat_0) (x_48 list_0))
	(diseqlist_0 nil_0 (cons_0 x_47 x_48))))
(assert (forall ((x_49 Nat_0) (x_50 list_0))
	(diseqlist_0 (cons_0 x_49 x_50) nil_0)))
(assert (forall ((x_51 Nat_0) (x_52 list_0) (x_53 Nat_0) (x_54 list_0))
	(=> (diseqNat_1 x_51 x_53)
	    (diseqlist_0 (cons_0 x_51 x_52) (cons_0 x_53 x_54)))))
(assert (forall ((x_51 Nat_0) (x_52 list_0) (x_53 Nat_0) (x_54 list_0))
	(=> (diseqlist_0 x_52 x_54)
	    (diseqlist_0 (cons_0 x_51 x_52) (cons_0 x_53 x_54)))))
(declare-fun x_0 (Bool Nat_0 Nat_0) Bool)
(assert (forall ((x_1 Nat_0) (y_0 Nat_0) (x_2 Nat_0) (y_1 Nat_0) (x_7 Bool) (x_8 Bool))
	(=>	(and (= x_7 x_8)
			(x_0 x_8 x_2 y_1)
			(= x_1 (S_0 x_2))
			(= y_0 (S_0 y_1)))
		(x_0 x_7 x_1 y_0))))
(assert (forall ((x_1 Nat_0) (y_0 Nat_0) (x_2 Nat_0) (x_9 Bool))
	(=>	(and (= x_9 false)
			(= x_1 (S_0 x_2))
			(= y_0 Z_0))
		(x_0 x_9 x_1 y_0))))
(assert (forall ((x_1 Nat_0) (y_0 Nat_0) (z_0 Nat_0) (x_10 Bool))
	(=>	(and (= x_10 false)
			(= x_1 Z_0)
			(= y_0 (S_0 z_0)))
		(x_0 x_10 x_1 y_0))))
(assert (forall ((x_1 Nat_0) (y_0 Nat_0) (x_11 Bool))
	(=>	(and (= x_11 true)
			(= x_1 Z_0)
			(= y_0 Z_0))
		(x_0 x_11 x_1 y_0))))
(declare-fun elem_0 (Bool Nat_0 list_0) Bool)
(assert (forall ((x_3 Nat_0) (y_2 list_0) (z_1 Nat_0) (xs_0 list_0) (x_13 Bool) (x_12 Bool))
	(=>	(and (= x_13 true)
			(= y_2 (cons_0 z_1 xs_0))
			(= x_12 true)
			(x_0 x_12 x_3 z_1))
		(elem_0 x_13 x_3 y_2))))
(assert (forall ((x_3 Nat_0) (y_2 list_0) (z_1 Nat_0) (xs_0 list_0) (x_15 Bool) (x_16 Bool) (x_14 Bool))
	(=>	(and (= x_15 x_16)
			(elem_0 x_16 x_3 xs_0)
			(= y_2 (cons_0 z_1 xs_0))
			(= x_14 false)
			(x_0 x_14 x_3 z_1))
		(elem_0 x_15 x_3 y_2))))
(assert (forall ((x_3 Nat_0) (y_2 list_0) (x_17 Bool))
	(=>	(and (= x_17 false)
			(= y_2 nil_0))
		(elem_0 x_17 x_3 y_2))))
(declare-fun x_4 (list_0 list_0 list_0) Bool)
(assert (forall ((x_5 list_0) (y_3 list_0) (z_2 Nat_0) (xs_1 list_0) (x_18 list_0) (x_19 list_0))
	(=>	(and (= x_18 (cons_0 z_2 x_19))
			(x_4 x_19 xs_1 y_3)
			(= x_5 (cons_0 z_2 xs_1)))
		(x_4 x_18 x_5 y_3))))
(assert (forall ((x_5 list_0) (y_3 list_0) (x_20 list_0))
	(=>	(and (= x_20 y_3)
			(= x_5 nil_0))
		(x_4 x_20 x_5 y_3))))
(assert (forall ((x_6 Nat_0) (xs_2 list_0) (ys_0 list_0) (x_21 list_0) (x_22 Bool) (x_23 Bool))
	(=>	(and (= x_22 false)
			(= x_23 true)
			(x_4 x_21 xs_2 ys_0)
			(elem_0 x_22 x_6 x_21)
			(elem_0 x_23 x_6 ys_0))
		false)))
(check-sat)
